CPXPARAM_Read_DataCheck                          1
Found incumbent of value 0.000000 after 0.00 sec. (0.77 ticks)
Tried aggregator 1 time.
MIP Presolve eliminated 8 rows and 0 columns.
MIP Presolve modified 1 coefficients.
Reduced MIP has 2041 rows, 30015 columns, and 134051 nonzeros.
Reduced MIP has 30015 binaries, 0 generals, 0 SOSs, and 0 indicators.
Presolve time = 0.08 sec. (53.49 ticks)
Tried aggregator 1 time.
Reduced MIP has 2041 rows, 30015 columns, and 134051 nonzeros.
Reduced MIP has 30015 binaries, 0 generals, 0 SOSs, and 0 indicators.
Presolve time = 0.08 sec. (59.24 ticks)
Probing time = 0.08 sec. (15.11 ticks)
Clique table members: 97091.
MIP emphasis: balance optimality and feasibility.
MIP search method: dynamic search.
Parallel mode: deterministic, using up to 4 threads.
Root relaxation solution time = 0.22 sec. (119.85 ticks)

        Nodes                                         Cuts/
   Node  Left     Objective  IInf  Best Integer    Best Bound    ItCnt     Gap

*     0+    0                            0.0000   185566.0000              --- 
      0     0   101641.0870    15        0.0000   101641.0870     6783     --- 
*     0+    0                        57852.0000   101641.0870            75.69%
*     0+    0                        60006.0000   101641.0870            69.38%
      0     0   101559.8590    15    60006.0000  Cliques: 610     6848   44.53%
*     0+    0                        60752.0000    86727.8830            42.76%
      0     0   101551.8590    15    60752.0000  Cliques: 610     6853   28.71%
      0     2   101551.8590    15    60752.0000    76560.4170     6853   26.02%
Elapsed time = 15.77 sec. (8382.44 ticks, tree = 0.01 MB, solutions = 4)
     38    31    77517.7485     9    60752.0000    76560.4170    21894   26.02%
     73    52    62251.1425     2    60752.0000    76560.4170    34068   26.02%
    122    80    65861.2465     4    60752.0000    76560.4170    52347   26.02%
    157    97    62957.5700     2    60752.0000    76560.4170    59623   26.02%
    204   128    67245.2055     4    60752.0000    76560.4170    75215   26.02%
    247   145    61817.5500     1    60752.0000    76560.4170    83113   26.02%
    298   168    63283.7325     3    60752.0000    76560.4170    94697   26.02%
    341   191    64577.7000     5    60752.0000    76142.3590   106371   25.33%
    398   213    69900.9910     7    60752.0000    75319.1955   115284   23.98%
    638   282        cutoff          60752.0000    71885.9140   148528   18.33%
Elapsed time = 21.61 sec. (11529.58 ticks, tree = 9.61 MB, solutions = 4)
    947   290        cutoff          60752.0000    68697.9245   195875   13.08%

Clique cuts applied:  1217
Implied bound cuts applied:  2

Root node processing (before b&c):
  Real time             =   15.75 sec. (8376.92 ticks)
Parallel b&c, 4 threads:
  Real time             =    8.98 sec. (4759.77 ticks)
  Sync time (average)   =    1.04 sec.
  Wait time (average)   =    0.00 sec.
                          ------------
Total (root+branch&cut) =   24.73 sec. (13136.69 ticks)
